c File: data_files/evolved_graphs/g3644.col
c
c Auto generated graph
c
p edge 100 2002
e 1 3
e 1 4
e 1 5
e 1 8
e 1 15
e 1 19
e 1 20
e 1 25
e 1 27
e 1 28
e 1 30
e 1 31
e 1 32
e 1 34
e 1 36
e 1 37
e 1 38
e 1 39
e 1 40
e 1 42
e 1 44
e 1 45
e 1 68
e 1 71
e 1 75
e 1 81
e 1 92
e 1 94
e 2 3
e 2 4
e 2 5
e 2 6
e 2 9
e 2 10
e 2 12
e 2 13
e 2 14
e 2 15
e 2 16
e 2 17
e 2 18
e 2 19
e 2 21
e 2 22
e 2 26
e 2 30
e 2 32
e 2 33
e 2 34
e 2 35
e 2 36
e 2 38
e 2 39
e 2 40
e 2 41
e 2 42
e 2 43
e 2 44
e 2 45
e 2 55
e 2 66
e 2 67
e 2 81
e 2 90
e 2 92
e 2 95
e 3 4
e 3 5
e 3 6
e 3 8
e 3 11
e 3 12
e 3 15
e 3 16
e 3 17
e 3 18
e 3 19
e 3 22
e 3 25
e 3 26
e 3 27
e 3 28
e 3 30
e 3 31
e 3 32
e 3 33
e 3 34
e 3 35
e 3 37
e 3 39
e 3 41
e 3 44
e 3 47
e 3 53
e 3 62
e 3 65
e 3 80
e 3 83
e 3 85
e 3 89
e 3 100
e 4 5
e 4 6
e 4 8
e 4 10
e 4 11
e 4 13
e 4 15
e 4 16
e 4 18
e 4 19
e 4 21
e 4 22
e 4 23
e 4 24
e 4 25
e 4 26
e 4 27
e 4 28
e 4 30
e 4 31
e 4 33
e 4 34
e 4 35
e 4 36
e 4 37
e 4 38
e 4 39
e 4 40
e 4 41
e 4 43
e 4 44
e 4 47
e 4 49
e 4 50
e 4 51
e 4 55
e 4 65
e 4 67
e 4 68
e 4 69
e 4 73
e 4 76
e 4 77
e 4 79
e 4 82
e 4 85
e 4 87
e 4 88
e 4 94
e 4 99
e 5 6
e 5 7
e 5 9
e 5 10
e 5 11
e 5 12
e 5 13
e 5 14
e 5 15
e 5 16
e 5 18
e 5 19
e 5 20
e 5 21
e 5 22
e 5 24
e 5 26
e 5 27
e 5 29
e 5 30
e 5 31
e 5 33
e 5 35
e 5 37
e 5 38
e 5 44
e 5 45
e 5 48
e 5 49
e 5 50
e 5 62
e 5 65
e 5 70
e 5 73
e 5 75
e 5 88
e 5 91
e 6 7
e 6 8
e 6 9
e 6 10
e 6 11
e 6 12
e 6 13
e 6 14
e 6 16
e 6 17
e 6 21
e 6 22
e 6 23
e 6 24
e 6 26
e 6 27
e 6 28
e 6 32
e 6 34
e 6 35
e 6 36
e 6 37
e 6 38
e 6 39
e 6 40
e 6 42
e 6 43
e 6 61
e 6 65
e 6 72
e 6 82
e 6 83
e 6 85
e 6 100
e 7 9
e 7 10
e 7 12
e 7 13
e 7 15
e 7 16
e 7 17
e 7 20
e 7 22
e 7 23
e 7 24
e 7 25
e 7 26
e 7 27
e 7 29
e 7 30
e 7 31
e 7 32
e 7 33
e 7 34
e 7 35
e 7 36
e 7 38
e 7 39
e 7 40
e 7 42
e 7 43
e 7 44
e 7 46
e 7 50
e 7 59
e 7 68
e 7 73
e 7 74
e 7 84
e 7 88
e 7 92
e 7 94
e 7 99
e 7 100
e 8 9
e 8 10
e 8 11
e 8 12
e 8 13
e 8 14
e 8 16
e 8 17
e 8 18
e 8 19
e 8 20
e 8 21
e 8 22
e 8 23
e 8 24
e 8 25
e 8 26
e 8 27
e 8 29
e 8 30
e 8 33
e 8 36
e 8 37
e 8 39
e 8 42
e 8 45
e 8 48
e 8 56
e 8 61
e 8 63
e 8 66
e 8 71
e 8 74
e 8 76
e 8 82
e 8 85
e 8 92
e 9 10
e 9 12
e 9 14
e 9 15
e 9 18
e 9 20
e 9 21
e 9 22
e 9 23
e 9 24
e 9 25
e 9 27
e 9 28
e 9 29
e 9 31
e 9 32
e 9 33
e 9 34
e 9 35
e 9 38
e 9 39
e 9 43
e 9 44
e 9 45
e 9 46
e 9 47
e 9 58
e 9 63
e 9 64
e 9 65
e 9 66
e 9 68
e 9 86
e 9 91
e 9 93
e 9 96
e 10 12
e 10 15
e 10 16
e 10 17
e 10 20
e 10 25
e 10 26
e 10 27
e 10 29
e 10 30
e 10 31
e 10 33
e 10 35
e 10 36
e 10 37
e 10 39
e 10 40
e 10 41
e 10 42
e 10 44
e 10 55
e 10 63
e 10 65
e 10 66
e 10 76
e 10 81
e 10 83
e 10 84
e 10 90
e 10 95
e 10 96
e 11 12
e 11 13
e 11 14
e 11 15
e 11 16
e 11 18
e 11 19
e 11 20
e 11 21
e 11 22
e 11 24
e 11 26
e 11 27
e 11 28
e 11 29
e 11 30
e 11 31
e 11 32
e 11 34
e 11 35
e 11 39
e 11 41
e 11 42
e 11 44
e 11 50
e 11 56
e 11 61
e 11 65
e 11 73
e 11 80
e 11 81
e 11 88
e 11 89
e 11 100
e 12 13
e 12 14
e 12 18
e 12 19
e 12 22
e 12 23
e 12 25
e 12 26
e 12 28
e 12 30
e 12 33
e 12 34
e 12 36
e 12 40
e 12 41
e 12 42
e 12 43
e 12 45
e 12 49
e 12 55
e 12 58
e 12 63
e 12 67
e 12 80
e 12 84
e 12 91
e 12 97
e 12 98
e 12 99
e 13 14
e 13 15
e 13 16
e 13 17
e 13 19
e 13 20
e 13 21
e 13 22
e 13 23
e 13 25
e 13 26
e 13 27
e 13 30
e 13 33
e 13 34
e 13 35
e 13 36
e 13 37
e 13 39
e 13 40
e 13 41
e 13 42
e 13 43
e 13 44
e 13 45
e 13 52
e 13 61
e 13 64
e 13 72
e 13 74
e 13 78
e 13 83
e 13 84
e 13 88
e 13 89
e 13 91
e 13 92
e 13 94
e 13 99
e 14 16
e 14 18
e 14 21
e 14 23
e 14 27
e 14 29
e 14 30
e 14 32
e 14 33
e 14 35
e 14 37
e 14 38
e 14 40
e 14 41
e 14 42
e 14 43
e 14 44
e 14 45
e 14 50
e 14 51
e 14 55
e 14 62
e 14 63
e 14 64
e 14 65
e 14 71
e 14 83
e 14 87
e 14 88
e 14 94
e 14 96
e 14 97
e 14 98
e 15 17
e 15 18
e 15 19
e 15 20
e 15 21
e 15 22
e 15 23
e 15 24
e 15 26
e 15 33
e 15 34
e 15 36
e 15 37
e 15 38
e 15 39
e 15 40
e 15 41
e 15 43
e 15 44
e 15 50
e 15 51
e 15 56
e 15 58
e 15 61
e 15 77
e 15 78
e 15 81
e 15 83
e 15 84
e 15 88
e 15 94
e 16 18
e 16 19
e 16 20
e 16 21
e 16 23
e 16 24
e 16 25
e 16 26
e 16 27
e 16 28
e 16 29
e 16 31
e 16 32
e 16 34
e 16 41
e 16 42
e 16 43
e 16 45
e 16 56
e 16 67
e 16 68
e 16 71
e 16 80
e 16 83
e 16 98
e 16 100
e 17 18
e 17 20
e 17 22
e 17 23
e 17 24
e 17 29
e 17 34
e 17 37
e 17 39
e 17 41
e 17 42
e 17 44
e 17 45
e 17 47
e 17 48
e 17 49
e 17 51
e 17 55
e 17 79
e 17 88
e 17 90
e 17 91
e 17 95
e 17 97
e 18 19
e 18 20
e 18 22
e 18 23
e 18 27
e 18 29
e 18 32
e 18 34
e 18 35
e 18 36
e 18 37
e 18 39
e 18 40
e 18 42
e 18 43
e 18 44
e 18 48
e 18 55
e 18 63
e 18 65
e 18 76
e 18 84
e 18 86
e 18 87
e 18 89
e 18 90
e 18 92
e 18 94
e 19 21
e 19 22
e 19 23
e 19 25
e 19 26
e 19 27
e 19 28
e 19 29
e 19 30
e 19 31
e 19 32
e 19 33
e 19 34
e 19 35
e 19 36
e 19 37
e 19 38
e 19 39
e 19 40
e 19 41
e 19 43
e 19 45
e 19 46
e 19 47
e 19 49
e 19 52
e 19 53
e 19 60
e 19 66
e 19 67
e 19 78
e 19 82
e 19 85
e 19 89
e 19 90
e 19 91
e 19 95
e 19 100
e 20 21
e 20 22
e 20 24
e 20 25
e 20 28
e 20 29
e 20 30
e 20 32
e 20 36
e 20 37
e 20 39
e 20 41
e 20 42
e 20 43
e 20 63
e 20 67
e 20 75
e 20 78
e 20 83
e 20 85
e 20 86
e 20 89
e 20 90
e 20 93
e 20 96
e 20 97
e 21 22
e 21 24
e 21 27
e 21 28
e 21 29
e 21 30
e 21 31
e 21 33
e 21 34
e 21 35
e 21 36
e 21 37
e 21 38
e 21 39
e 21 40
e 21 41
e 21 42
e 21 44
e 21 57
e 21 58
e 21 60
e 21 63
e 21 65
e 21 69
e 21 72
e 21 80
e 21 82
e 21 84
e 21 88
e 21 89
e 21 99
e 22 23
e 22 24
e 22 25
e 22 26
e 22 27
e 22 28
e 22 31
e 22 34
e 22 35
e 22 36
e 22 41
e 22 43
e 22 47
e 22 48
e 22 49
e 22 54
e 22 55
e 22 59
e 22 62
e 22 70
e 22 72
e 22 77
e 22 79
e 22 85
e 22 88
e 22 90
e 22 94
e 23 24
e 23 25
e 23 26
e 23 27
e 23 28
e 23 29
e 23 31
e 23 32
e 23 34
e 23 35
e 23 36
e 23 37
e 23 39
e 23 40
e 23 42
e 23 43
e 23 44
e 23 45
e 23 46
e 23 49
e 23 56
e 23 62
e 23 68
e 23 77
e 23 82
e 23 86
e 23 89
e 23 94
e 23 95
e 23 99
e 24 25
e 24 26
e 24 27
e 24 28
e 24 30
e 24 31
e 24 33
e 24 35
e 24 36
e 24 37
e 24 38
e 24 39
e 24 40
e 24 41
e 24 42
e 24 44
e 24 45
e 24 50
e 24 56
e 24 57
e 24 61
e 24 63
e 24 65
e 24 68
e 24 69
e 24 70
e 24 79
e 24 82
e 24 85
e 24 90
e 24 95
e 24 97
e 25 27
e 25 28
e 25 29
e 25 30
e 25 33
e 25 35
e 25 36
e 25 38
e 25 41
e 25 43
e 25 47
e 25 49
e 25 51
e 25 54
e 25 55
e 25 56
e 25 59
e 25 61
e 25 64
e 25 66
e 25 80
e 25 82
e 25 83
e 25 88
e 25 94
e 25 99
e 26 27
e 26 28
e 26 31
e 26 32
e 26 33
e 26 34
e 26 35
e 26 37
e 26 39
e 26 42
e 26 43
e 26 46
e 26 48
e 26 51
e 26 56
e 26 57
e 26 59
e 26 66
e 26 67
e 26 71
e 26 75
e 26 82
e 26 85
e 26 90
e 26 94
e 26 97
e 27 29
e 27 30
e 27 31
e 27 32
e 27 37
e 27 38
e 27 39
e 27 40
e 27 41
e 27 42
e 27 43
e 27 44
e 27 45
e 27 46
e 27 47
e 27 49
e 27 54
e 27 66
e 27 70
e 27 73
e 27 75
e 27 84
e 27 88
e 27 92
e 27 94
e 27 95
e 28 29
e 28 30
e 28 31
e 28 33
e 28 34
e 28 36
e 28 37
e 28 38
e 28 40
e 28 41
e 28 42
e 28 52
e 28 58
e 28 61
e 28 65
e 28 73
e 28 75
e 28 76
e 28 77
e 28 78
e 28 79
e 28 83
e 28 84
e 28 94
e 29 30
e 29 31
e 29 32
e 29 33
e 29 34
e 29 35
e 29 37
e 29 38
e 29 40
e 29 43
e 29 45
e 29 56
e 29 67
e 29 72
e 29 73
e 29 74
e 29 75
e 29 83
e 29 85
e 29 93
e 29 95
e 30 31
e 30 32
e 30 33
e 30 34
e 30 35
e 30 36
e 30 39
e 30 40
e 30 42
e 30 43
e 30 44
e 30 45
e 30 47
e 30 48
e 30 50
e 30 54
e 30 62
e 30 71
e 30 74
e 30 75
e 30 76
e 30 78
e 30 79
e 30 85
e 30 87
e 30 92
e 30 95
e 30 96
e 30 100
e 31 33
e 31 34
e 31 36
e 31 37
e 31 38
e 31 40
e 31 41
e 31 42
e 31 44
e 31 47
e 31 53
e 31 61
e 31 68
e 31 69
e 31 75
e 31 78
e 31 79
e 31 80
e 31 90
e 31 92
e 31 97
e 31 100
e 32 35
e 32 36
e 32 37
e 32 38
e 32 39
e 32 40
e 32 42
e 32 43
e 32 44
e 32 45
e 32 55
e 32 58
e 32 63
e 32 67
e 32 71
e 32 74
e 32 76
e 32 78
e 32 79
e 32 87
e 32 90
e 32 92
e 33 34
e 33 35
e 33 37
e 33 38
e 33 39
e 33 40
e 33 42
e 33 45
e 33 46
e 33 47
e 33 51
e 33 52
e 33 53
e 33 57
e 33 60
e 33 63
e 33 69
e 33 82
e 33 87
e 33 98
e 33 100
e 34 39
e 34 40
e 34 41
e 34 42
e 34 43
e 34 49
e 34 57
e 34 59
e 34 65
e 34 67
e 34 76
e 34 81
e 34 85
e 34 86
e 34 89
e 34 90
e 34 96
e 34 99
e 34 100
e 35 36
e 35 38
e 35 40
e 35 41
e 35 42
e 35 43
e 35 46
e 35 47
e 35 48
e 35 50
e 35 53
e 35 55
e 35 58
e 35 62
e 35 64
e 35 65
e 35 71
e 35 74
e 35 76
e 35 82
e 35 84
e 35 88
e 35 98
e 36 37
e 36 38
e 36 39
e 36 40
e 36 43
e 36 44
e 36 45
e 36 49
e 36 53
e 36 55
e 36 57
e 36 59
e 36 60
e 36 61
e 36 69
e 36 73
e 36 76
e 36 77
e 36 86
e 36 89
e 36 90
e 36 91
e 36 94
e 36 98
e 36 99
e 37 38
e 37 40
e 37 43
e 37 44
e 37 57
e 37 58
e 37 60
e 37 61
e 37 72
e 37 73
e 37 74
e 37 75
e 37 76
e 37 77
e 37 78
e 37 80
e 37 84
e 37 86
e 37 98
e 37 99
e 38 39
e 38 42
e 38 43
e 38 44
e 38 48
e 38 53
e 38 56
e 38 59
e 38 64
e 38 70
e 38 73
e 38 75
e 38 81
e 38 86
e 38 90
e 38 91
e 38 96
e 38 98
e 38 100
e 39 40
e 39 41
e 39 42
e 39 44
e 39 45
e 39 48
e 39 49
e 39 62
e 39 64
e 39 66
e 39 80
e 39 81
e 39 86
e 39 87
e 39 90
e 39 92
e 39 96
e 39 97
e 39 99
e 39 100
e 40 41
e 40 42
e 40 43
e 40 45
e 40 49
e 40 50
e 40 56
e 40 57
e 40 58
e 40 62
e 40 66
e 40 75
e 40 76
e 40 78
e 40 79
e 40 80
e 40 83
e 40 85
e 40 90
e 40 95
e 40 98
e 41 44
e 41 47
e 41 55
e 41 57
e 41 58
e 41 67
e 41 71
e 41 72
e 41 73
e 41 76
e 41 78
e 41 81
e 41 87
e 41 97
e 41 100
e 42 44
e 42 45
e 42 49
e 42 50
e 42 62
e 42 64
e 42 65
e 42 67
e 42 73
e 42 80
e 42 82
e 42 83
e 42 88
e 42 89
e 42 99
e 43 45
e 43 48
e 43 49
e 43 50
e 43 53
e 43 54
e 43 57
e 43 58
e 43 59
e 43 61
e 43 62
e 43 65
e 43 66
e 43 67
e 43 73
e 43 78
e 43 79
e 43 87
e 43 93
e 43 94
e 43 96
e 43 98
e 44 45
e 44 50
e 44 52
e 44 63
e 44 67
e 44 69
e 44 70
e 44 72
e 44 79
e 44 85
e 44 90
e 45 47
e 45 49
e 45 55
e 45 60
e 45 61
e 45 63
e 45 64
e 45 65
e 45 68
e 45 69
e 45 72
e 45 77
e 45 81
e 45 82
e 45 84
e 45 87
e 45 89
e 46 47
e 46 50
e 46 51
e 47 49
e 47 50
e 47 51
e 47 52
e 47 63
e 47 64
e 47 85
e 48 88
e 49 50
e 49 51
e 49 57
e 50 65
e 50 71
e 50 74
e 50 77
e 51 52
e 51 64
e 51 69
e 51 70
e 51 83
e 51 98
e 53 54
e 53 55
e 53 56
e 53 57
e 53 58
e 53 59
e 53 66
e 53 68
e 53 69
e 53 70
e 53 71
e 53 72
e 53 73
e 53 74
e 53 75
e 53 78
e 53 79
e 53 80
e 53 81
e 53 82
e 53 83
e 53 85
e 53 86
e 53 87
e 53 90
e 53 94
e 53 95
e 53 96
e 53 97
e 53 100
e 54 57
e 54 58
e 54 59
e 54 60
e 54 63
e 54 64
e 54 65
e 54 74
e 54 75
e 54 76
e 54 77
e 54 78
e 54 80
e 54 81
e 54 84
e 54 85
e 54 86
e 54 87
e 54 89
e 54 90
e 54 91
e 54 94
e 54 96
e 54 97
e 54 98
e 54 100
e 55 56
e 55 57
e 55 58
e 55 59
e 55 60
e 55 63
e 55 64
e 55 65
e 55 66
e 55 68
e 55 69
e 55 70
e 55 72
e 55 74
e 55 75
e 55 76
e 55 77
e 55 79
e 55 81
e 55 83
e 55 87
e 55 89
e 55 90
e 55 91
e 55 92
e 55 93
e 55 94
e 55 95
e 55 96
e 55 98
e 55 99
e 56 57
e 56 59
e 56 60
e 56 61
e 56 63
e 56 64
e 56 65
e 56 68
e 56 69
e 56 71
e 56 72
e 56 73
e 56 77
e 56 78
e 56 79
e 56 80
e 56 82
e 56 85
e 56 86
e 56 87
e 56 88
e 56 89
e 56 93
e 56 94
e 56 95
e 56 97
e 56 98
e 56 99
e 56 100
e 57 58
e 57 59
e 57 60
e 57 61
e 57 63
e 57 66
e 57 67
e 57 68
e 57 69
e 57 71
e 57 73
e 57 74
e 57 75
e 57 77
e 57 78
e 57 79
e 57 81
e 57 82
e 57 83
e 57 84
e 57 85
e 57 87
e 57 89
e 57 90
e 57 91
e 57 92
e 57 93
e 57 94
e 57 95
e 57 97
e 57 99
e 58 59
e 58 61
e 58 62
e 58 63
e 58 64
e 58 65
e 58 66
e 58 67
e 58 68
e 58 70
e 58 72
e 58 73
e 58 77
e 58 79
e 58 80
e 58 82
e 58 86
e 58 87
e 58 88
e 58 89
e 58 91
e 58 92
e 58 93
e 58 94
e 58 97
e 58 100
e 59 60
e 59 61
e 59 63
e 59 65
e 59 66
e 59 67
e 59 69
e 59 70
e 59 71
e 59 73
e 59 74
e 59 75
e 59 77
e 59 78
e 59 79
e 59 81
e 59 82
e 59 83
e 59 85
e 59 88
e 59 89
e 59 90
e 59 91
e 59 92
e 59 96
e 59 97
e 59 98
e 59 99
e 59 100
e 60 61
e 60 62
e 60 64
e 60 67
e 60 68
e 60 69
e 60 70
e 60 71
e 60 72
e 60 75
e 60 76
e 60 77
e 60 78
e 60 79
e 60 80
e 60 81
e 60 82
e 60 83
e 60 85
e 60 87
e 60 91
e 60 94
e 60 95
e 60 97
e 60 98
e 60 99
e 61 63
e 61 64
e 61 65
e 61 66
e 61 67
e 61 68
e 61 69
e 61 71
e 61 72
e 61 73
e 61 74
e 61 76
e 61 77
e 61 78
e 61 79
e 61 81
e 61 82
e 61 84
e 61 88
e 61 90
e 61 91
e 61 92
e 61 93
e 61 95
e 61 96
e 61 97
e 61 98
e 61 99
e 61 100
e 62 64
e 62 65
e 62 66
e 62 67
e 62 69
e 62 73
e 62 74
e 62 75
e 62 76
e 62 77
e 62 79
e 62 80
e 62 81
e 62 82
e 62 83
e 62 84
e 62 85
e 62 86
e 62 87
e 62 88
e 62 89
e 62 90
e 62 91
e 62 96
e 62 98
e 62 99
e 63 67
e 63 68
e 63 69
e 63 71
e 63 72
e 63 73
e 63 74
e 63 76
e 63 77
e 63 82
e 63 83
e 63 84
e 63 85
e 63 86
e 63 87
e 63 91
e 63 92
e 63 93
e 63 94
e 63 95
e 63 97
e 63 98
e 64 65
e 64 66
e 64 67
e 64 69
e 64 70
e 64 71
e 64 75
e 64 77
e 64 80
e 64 81
e 64 84
e 64 85
e 64 88
e 64 89
e 64 91
e 64 94
e 64 95
e 64 99
e 65 66
e 65 68
e 65 70
e 65 72
e 65 73
e 65 75
e 65 78
e 65 79
e 65 80
e 65 81
e 65 82
e 65 83
e 65 84
e 65 87
e 65 88
e 65 89
e 65 91
e 65 94
e 65 96
e 65 97
e 65 98
e 65 99
e 66 70
e 66 71
e 66 72
e 66 73
e 66 75
e 66 77
e 66 79
e 66 80
e 66 81
e 66 82
e 66 83
e 66 84
e 66 85
e 66 86
e 66 87
e 66 88
e 66 89
e 66 90
e 66 91
e 66 92
e 66 95
e 66 96
e 66 97
e 66 98
e 67 68
e 67 69
e 67 71
e 67 72
e 67 73
e 67 74
e 67 75
e 67 77
e 67 79
e 67 80
e 67 81
e 67 82
e 67 83
e 67 84
e 67 85
e 67 86
e 67 88
e 67 93
e 67 95
e 67 96
e 67 97
e 67 99
e 67 100
e 68 69
e 68 70
e 68 71
e 68 73
e 68 75
e 68 76
e 68 77
e 68 78
e 68 80
e 68 82
e 68 83
e 68 84
e 68 85
e 68 87
e 68 88
e 68 89
e 68 90
e 68 92
e 68 93
e 68 95
e 68 96
e 68 99
e 69 71
e 69 72
e 69 74
e 69 75
e 69 76
e 69 77
e 69 79
e 69 80
e 69 81
e 69 82
e 69 84
e 69 86
e 69 88
e 69 89
e 69 91
e 69 92
e 69 96
e 69 97
e 69 98
e 69 99
e 69 100
e 70 71
e 70 73
e 70 77
e 70 78
e 70 79
e 70 83
e 70 85
e 70 86
e 70 87
e 70 89
e 70 90
e 70 93
e 70 94
e 70 95
e 70 96
e 70 97
e 70 98
e 70 99
e 70 100
e 71 74
e 71 75
e 71 78
e 71 80
e 71 81
e 71 83
e 71 84
e 71 85
e 71 87
e 71 88
e 71 89
e 71 90
e 71 95
e 71 96
e 71 97
e 71 98
e 71 99
e 72 75
e 72 77
e 72 80
e 72 81
e 72 82
e 72 83
e 72 84
e 72 86
e 72 87
e 72 88
e 72 89
e 72 90
e 72 91
e 72 92
e 72 94
e 72 95
e 72 96
e 72 97
e 72 100
e 73 75
e 73 77
e 73 78
e 73 80
e 73 82
e 73 83
e 73 85
e 73 86
e 73 87
e 73 89
e 73 90
e 73 91
e 73 92
e 73 94
e 73 96
e 73 98
e 73 99
e 74 75
e 74 76
e 74 77
e 74 78
e 74 79
e 74 81
e 74 82
e 74 83
e 74 85
e 74 86
e 74 87
e 74 89
e 74 90
e 74 91
e 74 93
e 74 94
e 74 95
e 74 98
e 74 99
e 75 76
e 75 77
e 75 79
e 75 80
e 75 81
e 75 82
e 75 83
e 75 84
e 75 85
e 75 86
e 75 88
e 75 89
e 75 90
e 75 91
e 75 92
e 75 94
e 75 98
e 75 99
e 76 77
e 76 78
e 76 79
e 76 80
e 76 82
e 76 85
e 76 86
e 76 87
e 76 88
e 76 89
e 76 92
e 76 93
e 76 96
e 76 98
e 77 78
e 77 79
e 77 80
e 77 81
e 77 82
e 77 83
e 77 84
e 77 85
e 77 90
e 77 91
e 77 92
e 77 93
e 77 96
e 77 98
e 77 100
e 78 79
e 78 80
e 78 81
e 78 82
e 78 83
e 78 84
e 78 88
e 78 91
e 78 92
e 78 95
e 78 97
e 78 98
e 78 99
e 78 100
e 79 80
e 79 82
e 79 83
e 79 85
e 79 87
e 79 88
e 79 89
e 79 90
e 79 91
e 79 92
e 79 93
e 79 94
e 79 95
e 79 98
e 79 99
e 79 100
e 80 81
e 80 82
e 80 83
e 80 84
e 80 85
e 80 89
e 80 91
e 80 94
e 80 95
e 80 97
e 80 99
e 81 82
e 81 84
e 81 85
e 81 86
e 81 87
e 81 88
e 81 89
e 81 90
e 81 96
e 81 97
e 81 100
e 82 83
e 82 85
e 82 86
e 82 87
e 82 88
e 82 89
e 82 91
e 82 92
e 82 93
e 82 94
e 82 96
e 82 97
e 82 99
e 82 100
e 83 84
e 83 85
e 83 86
e 83 88
e 83 89
e 83 90
e 83 91
e 83 92
e 83 93
e 83 94
e 83 96
e 83 97
e 83 98
e 83 99
e 83 100
e 84 86
e 84 87
e 84 88
e 84 89
e 84 90
e 84 91
e 84 93
e 84 94
e 84 95
e 84 96
e 84 97
e 84 98
e 84 99
e 85 87
e 85 88
e 85 89
e 85 90
e 85 92
e 85 93
e 85 95
e 85 98
e 85 99
e 85 100
e 86 87
e 86 90
e 86 92
e 86 93
e 86 94
e 86 96
e 86 97
e 86 99
e 86 100
e 87 92
e 87 93
e 87 95
e 87 96
e 87 98
e 87 99
e 88 90
e 88 91
e 88 93
e 88 94
e 88 95
e 88 96
e 88 97
e 88 98
e 89 90
e 89 92
e 89 94
e 89 97
e 89 100
e 90 93
e 90 94
e 90 96
e 90 97
e 90 98
e 90 99
e 90 100
e 91 93
e 91 94
e 91 96
e 91 97
e 91 98
e 91 99
e 91 100
e 92 93
e 92 94
e 92 95
e 92 96
e 92 97
e 92 98
e 92 99
e 92 100
e 93 94
e 93 96
e 93 97
e 93 99
e 93 100
e 94 97
e 94 98
e 95 97
e 95 99
e 95 100
e 96 97
e 98 99
e 99 100
